c array.sh: path:     /data/qbf/qbf20/PCNF/network_trans_sys_notify.c.qdimacs
c array.sh: name:     network_trans_sys_notify.c
c array.sh: task:     79
c array.sh: host:     c3n01
c array.sh: uname:    Linux c3n01 4.15.0-135-generic #139-Ubuntu SMP Mon Jan 18 17:38:24 UTC 2021 x86_64 x86_64 x86_64 GNU/Linux
c array.sh: start:    Tue Feb 16 22:47:06 CET 2021
c array.sh: noturbo:  1
c array.sh: governor: 32 performance
c array.sh: tmp:      1%
c array.sh: unzipped: /tmp/local-unzipped-18834727-79-network_trans_sys_notify.c.cnf
using tmp directory:
  /tmp
running QBF solver...

/home/seidl/cert_tests/bin/ferp-models/ijtihad/ijtihad --dependencies=0 --wit_per_call=-1 --cex_per_call=-1 --log_phi=/tmp/ferpcert3657expanded.cnf /tmp/local-unzipped-18834727-79-network_trans_sys_notify.c.cnf
c Options after parsing: 
c cex_per_call = 18446744073709551615
c wit_per_call = 18446744073709551615
c warmup = 1
c warmup_randoms = 0
c trimming_phi = 0
c trimming_ksi = 2
c trimming_interval = 200
c memory_limit = 3000000
c MySolverv970-glucose
-1 -2 -3 -4 -5 -6 -7 -8 -9 -10 -11 -12 -13 -14 -15 -16 -17 -18 -19 -20 -21 -22 -23 -24 -25 -26 -27 -28 -29 -30 -31 -32 -33 -34 -35 -36 -37 -38 -39 -40 -41 -42 -43 -44 -45 -46 -47 -48 -49 -50 -51 -52 -53 -54 -55 -56 -57 -58 -59 -60 -61 -62 -63 -64 -65 -66 -67 -68 -69 -70 -71 -72 -73 -74 -75 -76 -77 -78 -79 -80 -81 -82 -83 -84 -85 -86 -87 -88 -89 -90 -91 -92 -93 -94 -95 -96 -97 -98 -99 -100 -101 -102 -103 -104 -105 -106 -107 -108 -109 -110 -111 -112 -113 -114 -115 -116 -117 -118 -119 -120 -121 -122 -123 -124 -125 -126 -127 -128 -129 -130 -131 -132 -133 -134 -135 -136 -137 -138 -139 -140 -141 -142 -143 -144 -145 -146 -147 -148 -149 -150 -151 -152 -153 -154 -155 -156 -157 -158 -159 -160 
1 2 3 4 5 6 7 8 9 10 11 12 13 14 15 16 17 18 19 20 21 22 23 24 25 26 27 28 29 30 31 32 33 34 35 36 37 38 39 40 41 42 43 44 45 46 47 48 49 50 51 52 53 54 55 56 57 58 59 60 61 62 63 64 65 66 67 68 69 70 71 72 73 74 75 76 77 78 79 80 81 82 83 84 85 86 87 88 89 90 91 92 93 94 95 96 97 98 99 100 101 102 103 104 105 106 107 108 109 110 111 112 113 114 115 116 117 118 119 120 121 122 123 124 125 126 127 128 129 130 131 132 133 134 135 136 137 138 139 140 141 142 143 144 145 146 147 148 149 150 151 152 153 154 155 156 157 158 159 160 
c Number of calls is: 0
c Layers in PHI: 0
c Layers in KSI: 0
c Running Ijtihad loop
c sat_solver_phi calld 0 times, running for 0.009037 seconds.
c number of layers in PHI is 2
c sat_solver_ksi was running for 0 seconds.
c number of layers in KSI is 0
c mysolver was running for 0.177746 seconds.
s cnf 0
solving done with exit code 20

QBF solver OK

running SAT Solver...

/tmp/ferpcert3657expanded.cnf
s UNSATISFIABLE

PROOF GENERATION OK

checking unsat proof

resolved 1 root and 1 empty clause
trace-size2: 1821225

TRACE CHECK OK

running toferp...

ferp-size: 2029035
TOFERP OK

checking FERP PROOF...

c Warning: Variable count mismatch 24516 24517
FERP CHECK OK

extracting AIG ...

aig-size: 300281
aig-header: aag 34561 24356 0 160 10204
FERP CERT OK

merging  AIG into QBF ...

CERTCHECK OK

merged-cnf-header: p cnf 272605 671192
merged-cnf-size: 12207142
running SAT solver...

c ---- [ banner ] ------------------------------------------------------------
c
c KISSAT SAT Solver
c Copyright (c) 2019-2020 Armin Biere JKU Linz
c 
c Version 1.0.3 59813addcacc4d6fb880ebdd63685600475aa940
c gcc (Ubuntu 7.5.0-3ubuntu1~18.04) 7.5.0 -W -Wall -O3 -DNEMBEDDED -DNDEBUG -DNMETRICS -DNSTATISTICS
c Sun Feb 14 23:58:54 CET 2021 Linux cluster3 4.15.0-135-generic x86_64
c
c ---- [ parsing ] -----------------------------------------------------------
c
c opened and reading DIMACS file:
c 
c   /tmp/ferpcert_merged_cnf3657.cnf
c 
c parsed 'p cnf 272605 671192' header
c closing input after reading 12207142 bytes (12 MB)
c finished parsing after 0.22 seconds
c
c ---- [ solving ] -----------------------------------------------------------
c
c  seconds reductions redundant irredundant
c         MB   restarts    trail       variables
c          level  conflicts   glue         remaining
c
c *  0.22 39 0  0  0   0   0 0% 0 671190 13762 5%
c {  0.22 39 0  0  0   0   0 0% 0 671190 13762 5%
c i  0.22 39 32  0  0   1   0 81% 0 671190 13758 5%
c i  0.22 39 32  0  1   2   0 82% 0 671190 13754 5%
c i  0.22 39 32  0  2   3   0 81% 0 671190 13750 5%
c i  0.22 39 32  0  3   4   0 81% 0 671190 13746 5%
c i  0.22 39 32  0  4   5   0 81% 0 671190 13742 5%
c i  0.22 39 32  0  5   6   0 81% 0 671190 13738 5%
c i  0.22 39 32  0  6   7   0 80% 0 671190 13734 5%
c i  0.22 39 32  0  7   8   0 80% 0 671190 13730 5%
c i  0.22 39 32  0  8   9   0 80% 0 671190 13726 5%
c i  0.22 39 32  0  9  10   0 80% 0 671190 13722 5%
c i  0.23 39 32  0 10  11   0 79% 0 671190 13718 5%
c i  0.23 39 32  0 11  12   0 79% 0 671190 13714 5%
c i  0.23 39 32  0 12  13   0 79% 0 671190 13710 5%
c i  0.23 39 32  0 13  14   0 79% 0 671190 13706 5%
c i  0.23 39 32  0 14  15   0 79% 0 671190 13702 5%
c i  0.23 39 32  0 15  16   0 79% 0 671190 13698 5%
c i  0.23 39 32  0 16  17   0 79% 0 671190 13694 5%
c i  0.23 39 32  0 17  18   0 79% 0 671190 13690 5%
c
c  seconds  reductions redundant irredundant
c         MB    restarts     trail       variables
c          level   conflicts    glue         remaining
c
c i  0.23 39 32  0 18  19   0 79% 0 671190 13686 5%
c i  0.23 39 32  0 19  20   0 79% 0 671190 13682 5%
c i  0.23 39 32  0 20  21   0 79% 0 671190 13678 5%
c i  0.23 39 32  0 21  22   0 79% 0 671190 13674 5%
c i  0.23 39 32  0 22  23   0 79% 0 671190 13670 5%
c i  0.23 39 32  0 23  24   0 79% 0 671190 13666 5%
c i  0.23 39 32  0 24  25   0 79% 0 671190 13662 5%
c i  0.23 39 32  0 25  26   0 79% 0 671190 13658 5%
c i  0.23 39 32  0 26  27   0 79% 0 671190 13654 5%
c i  0.23 39 32  0 27  28   0 79% 0 671190 13650 5%
c i  0.24 39 32  0 28  29   0 79% 0 671190 13646 5%
c i  0.24 39 32  0 29  30   0 80% 0 671190 13642 5%
c i  0.24 39 32  0 30  31   0 80% 0 671190 13638 5%
c i  0.24 39 32  0 31  33   1 80% 0 671190 13637 5%
c i  0.24 39 31  0 31  34   1 78% 0 671190 13630 5%
c i  0.24 39 30  0 31  35   1 75% 0 671190 13629 5%
c }  0.24 39 28  0 31  37   1 71% 0 671190 13613 5%
c 0  0.24 39 28  0 31  37   1 71% 0 671190 13613 5%
c
c ---- [ result ] ------------------------------------------------------------
c
s UNSATISFIABLE
c
c ---- [ profiling ] ---------------------------------------------------------
c
c           0.22   89.85 %  parse
c           0.02   10.07 %  search
c           0.02   10.02 %  focused
c           0.00    0.00 %  simplify
c =============================================
c           0.24  100.00 %  total
c
c ---- [ statistics ] --------------------------------------------------------
c
c conflicts:                               37              153.72 per second
c decisions:                             1030               27.84 per conflict
c propagations:                        584553          2428615    per second
c restarts:                                31                1.19 interval
c
c ---- [ resources ] ---------------------------------------------------------
c
c maximum-resident-set-size:         41230336 bytes         39 MB
c process-time:                             0s               0.24 seconds
c
c ---- [ shutting down ] -----------------------------------------------------
c
c exit 20

SAT solver OK

VALID
c array.sh: end:      Tue Feb 16 22:48:12 CET 2021
